NAME: ETSP
COMMENT: Generated by write_TSPLIB (R package TSP)
TYPE: TSP
DIMENSION: 200
EDGE_WEIGHT_TYPE: EUC_2D
NODE_COORD_SECTION
1 1.000000e+01 0.000000e+00
2 4.000000e+01 0.000000e+00
3 6.000000e+01 0.000000e+00
4 8.000000e+01 0.000000e+00
5 9.000000e+01 0.000000e+00
6 1.100000e+02 0.000000e+00
7 1.000000e+01 1.000000e+01
8 3.000000e+01 1.000000e+01
9 4.000000e+01 1.000000e+01
10 5.000000e+01 1.000000e+01
11 7.000000e+01 1.000000e+01
12 8.000000e+01 1.000000e+01
13 9.000000e+01 1.000000e+01
14 1.000000e+02 1.000000e+01
15 0.000000e+00 2.000000e+01
16 1.000000e+01 2.000000e+01
17 2.000000e+01 2.000000e+01
18 4.000000e+01 2.000000e+01
19 5.000000e+01 2.000000e+01
20 6.000000e+01 2.000000e+01
21 7.000000e+01 2.000000e+01
22 8.000000e+01 2.000000e+01
23 9.000000e+01 2.000000e+01
24 1.000000e+02 2.000000e+01
25 1.100000e+02 2.000000e+01
26 0.000000e+00 3.000000e+01
27 1.000000e+01 3.000000e+01
28 2.000000e+01 3.000000e+01
29 3.000000e+01 3.000000e+01
30 4.000000e+01 3.000000e+01
31 5.000000e+01 3.000000e+01
32 6.000000e+01 3.000000e+01
33 7.000000e+01 3.000000e+01
34 8.000000e+01 3.000000e+01
35 9.000000e+01 3.000000e+01
36 1.000000e+02 3.000000e+01
37 1.100000e+02 3.000000e+01
38 0.000000e+00 4.000000e+01
39 1.000000e+01 4.000000e+01
40 3.000000e+01 4.000000e+01
41 4.000000e+01 4.000000e+01
42 6.000000e+01 4.000000e+01
43 7.000000e+01 4.000000e+01
44 9.000000e+01 4.000000e+01
45 1.000000e+02 4.000000e+01
46 3.000000e+01 5.000000e+01
47 5.000000e+01 5.000000e+01
48 6.000000e+01 5.000000e+01
49 7.000000e+01 5.000000e+01
50 8.000000e+01 5.000000e+01
51 9.000000e+01 5.000000e+01
52 1.000000e+02 5.000000e+01
53 1.100000e+02 5.000000e+01
54 0.000000e+00 6.000000e+01
55 1.000000e+01 6.000000e+01
56 3.000000e+01 6.000000e+01
57 5.000000e+01 6.000000e+01
58 9.000000e+01 6.000000e+01
59 1.100000e+02 6.000000e+01
60 1.000000e+01 7.000000e+01
61 2.000000e+01 7.000000e+01
62 3.000000e+01 7.000000e+01
63 4.000000e+01 7.000000e+01
64 5.000000e+01 7.000000e+01
65 6.000000e+01 7.000000e+01
66 8.000000e+01 7.000000e+01
67 9.000000e+01 7.000000e+01
68 1.000000e+02 7.000000e+01
69 1.000000e+01 8.000000e+01
70 2.000000e+01 8.000000e+01
71 3.000000e+01 8.000000e+01
72 4.000000e+01 8.000000e+01
73 6.000000e+01 8.000000e+01
74 8.000000e+01 8.000000e+01
75 9.000000e+01 8.000000e+01
76 1.100000e+02 8.000000e+01
77 0.000000e+00 9.000000e+01
78 1.000000e+01 9.000000e+01
79 2.000000e+01 9.000000e+01
80 3.000000e+01 9.000000e+01
81 4.000000e+01 9.000000e+01
82 6.000000e+01 9.000000e+01
83 8.000000e+01 9.000000e+01
84 9.000000e+01 9.000000e+01
85 1.000000e+02 9.000000e+01
86 1.100000e+02 9.000000e+01
87 0.000000e+00 1.000000e+02
88 1.000000e+01 1.000000e+02
89 2.000000e+01 1.000000e+02
90 3.000000e+01 1.000000e+02
91 4.000000e+01 1.000000e+02
92 6.000000e+01 1.000000e+02
93 7.000000e+01 1.000000e+02
94 8.000000e+01 1.000000e+02
95 9.000000e+01 1.000000e+02
96 1.000000e+02 1.000000e+02
97 0.000000e+00 1.100000e+02
98 2.000000e+01 1.100000e+02
99 3.000000e+01 1.100000e+02
100 4.000000e+01 1.100000e+02
101 5.000000e+01 1.100000e+02
102 6.000000e+01 1.100000e+02
103 8.000000e+01 1.100000e+02
104 9.000000e+01 1.100000e+02
105 1.000000e+02 1.100000e+02
106 1.100000e+02 1.100000e+02
107 0.000000e+00 1.200000e+02
108 1.000000e+01 1.200000e+02
109 2.000000e+01 1.200000e+02
110 4.000000e+01 1.200000e+02
111 5.000000e+01 1.200000e+02
112 7.000000e+01 1.200000e+02
113 8.000000e+01 1.200000e+02
114 9.000000e+01 1.200000e+02
115 1.000000e+02 1.200000e+02
116 1.100000e+02 1.200000e+02
117 1.000000e+01 1.300000e+02
118 2.000000e+01 1.300000e+02
119 3.000000e+01 1.300000e+02
120 5.000000e+01 1.300000e+02
121 6.000000e+01 1.300000e+02
122 7.000000e+01 1.300000e+02
123 8.000000e+01 1.300000e+02
124 9.000000e+01 1.300000e+02
125 1.000000e+02 1.300000e+02
126 1.100000e+02 1.300000e+02
127 2.000000e+01 1.400000e+02
128 4.000000e+01 1.400000e+02
129 5.000000e+01 1.400000e+02
130 6.000000e+01 1.400000e+02
131 7.000000e+01 1.400000e+02
132 8.000000e+01 1.400000e+02
133 9.000000e+01 1.400000e+02
134 1.000000e+02 1.400000e+02
135 0.000000e+00 1.500000e+02
136 1.000000e+01 1.500000e+02
137 4.000000e+01 1.500000e+02
138 5.000000e+01 1.500000e+02
139 6.000000e+01 1.500000e+02
140 7.000000e+01 1.500000e+02
141 8.000000e+01 1.500000e+02
142 9.000000e+01 1.500000e+02
143 1.000000e+02 1.500000e+02
144 1.100000e+02 1.500000e+02
145 0.000000e+00 1.600000e+02
146 2.000000e+01 1.600000e+02
147 3.000000e+01 1.600000e+02
148 4.000000e+01 1.600000e+02
149 7.000000e+01 1.600000e+02
150 8.000000e+01 1.600000e+02
151 9.000000e+01 1.600000e+02
152 1.100000e+02 1.600000e+02
153 1.000000e+01 1.700000e+02
154 2.000000e+01 1.700000e+02
155 5.000000e+01 1.700000e+02
156 7.000000e+01 1.700000e+02
157 8.000000e+01 1.700000e+02
158 1.000000e+02 1.700000e+02
159 0.000000e+00 1.800000e+02
160 1.000000e+01 1.800000e+02
161 2.000000e+01 1.800000e+02
162 3.000000e+01 1.800000e+02
163 5.000000e+01 1.800000e+02
164 6.000000e+01 1.800000e+02
165 7.000000e+01 1.800000e+02
166 9.000000e+01 1.800000e+02
167 1.000000e+02 1.800000e+02
168 1.000000e+01 1.900000e+02
169 5.000000e+01 1.900000e+02
170 6.000000e+01 1.900000e+02
171 7.000000e+01 1.900000e+02
172 8.000000e+01 1.900000e+02
173 1.000000e+02 1.900000e+02
174 1.100000e+02 1.900000e+02
175 0.000000e+00 2.000000e+02
176 2.000000e+01 2.000000e+02
177 3.000000e+01 2.000000e+02
178 5.000000e+01 2.000000e+02
179 7.000000e+01 2.000000e+02
180 1.000000e+02 2.000000e+02
181 0.000000e+00 2.100000e+02
182 2.000000e+01 2.100000e+02
183 3.000000e+01 2.100000e+02
184 4.000000e+01 2.100000e+02
185 5.000000e+01 2.100000e+02
186 6.000000e+01 2.100000e+02
187 7.000000e+01 2.100000e+02
188 8.000000e+01 2.100000e+02
189 9.000000e+01 2.100000e+02
190 1.000000e+02 2.100000e+02
191 0.000000e+00 2.200000e+02
192 1.000000e+01 2.200000e+02
193 2.000000e+01 2.200000e+02
194 3.000000e+01 2.200000e+02
195 5.000000e+01 2.200000e+02
196 6.000000e+01 2.200000e+02
197 8.000000e+01 2.200000e+02
198 9.000000e+01 2.200000e+02
199 1.000000e+02 2.200000e+02
200 1.100000e+02 2.200000e+02
EOF
